nK = 3089;
nT = 8;
nI = 21;
L = 35;
TT = 658;
np = 1;
nc = 3;
b = [56, 58, 61, 59, 53, 55, 39, 49, 32, 54, 63, 25, 58, 56, 65, 30, 37, 45, 27, 27, 28];
d = [93, 95, 108, 110, 141, 84, 141, 79, 140, 122, 103, 60, 111, 145, 150, 55, 98, 135, 133, 54, 55];
m = [1.4, 1.5, 1.9, 2.5, 1.9, 2.2, 1.4, 2.2, 1.8, 1.2, 1.1, 2.4, 1.1, 1.1, 2.3, 1.7, 2, 2, 1.9, 1.6, 1.3];
pt = [0.21, 0.24, 0.28, 0.22, 0.28, 0.34, 0.28, 0.33];
st = [9.24, 14.16, 13.44, 9.9, 14, 17.34, 16.24, 18.81];
arc = {<1, 0, 1, 1, 0, 0, 0, [1, 1, 1, 1, 1, 1, 1, 1]>, <2, 1, 2, 1, 0, 0, 0, [1, 1, 1, 1, 1, 1, 1, 1]>, <3, 2, 3, 1, 0, 0, 0, [1, 1, 1, 1, 1, 1, 1, 1]>, <4, 3, 4, 1, 0, 0, 0, [1, 1, 1, 1, 1, 1, 1, 1]>, <5, 4, 5, 1, 0, 0, 0, [1, 1, 1, 1, 1, 1, 1, 1]>, <6, 5, 6, 1, 0, 0, 0, [1, 1, 1, 1, 1, 1, 1, 1]>, <7, 6, 7, 1, 0, 0, 0, [1, 1, 1, 1, 1, 1, 1, 1]>, <8, 7, 8, 1, 0, 0, 0, [1, 1, 1, 1, 1, 1, 1, 1]>, <9, 8, 9, 1, 0, 0, 0, [1, 1, 1, 1, 1, 1, 1, 1]>, <10, 9, 10, 1, 0, 0, 0, [1, 1, 1, 1, 1, 1, 1, 1]>, <11, 10, 11, 1, 0, 0, 0, [1, 1, 1, 1, 1, 1, 1, 1]>, <12, 11, 12, 1, 0, 0, 0, [1, 1, 1, 1, 1, 1, 1, 1]>, <13, 12, 13, 1, 0, 0, 0, [1, 1, 1, 1, 1, 1, 1, 1]>, <14, 13, 14, 1, 0, 0, 0, [1, 1, 1, 1, 1, 1, 1, 1]>, <15, 14, 15, 1, 0, 0, 0, [1, 1, 1, 1, 1, 1, 1, 1]>, <16, 15, 16, 1, 0, 0, 0, [1, 1, 1, 1, 1, 1, 1, 1]>, <17, 16, 17, 1, 0, 0, 0, [1, 1, 1, 1, 1, 1, 1, 1]>, <18, 17, 18, 1, 0, 0, 0, [1, 1, 1, 1, 1, 1, 1, 1]>, <19, 18, 19, 1, 0, 0, 0, [1, 1, 1, 1, 1, 1, 1, 1]>, <20, 19, 20, 1, 0, 0, 0, [1, 1, 1, 1, 1, 1, 1, 1]>, <21, 20, 21, 1, 0, 0, 0, [1, 1, 1, 1, 1, 1, 1, 1]>, <22, 21, 22, 1, 0, 0, 0, [1, 1, 1, 1, 1, 1, 1, 1]>, <23, 22, 23, 1, 0, 0, 0, [1, 1, 1, 1, 1, 1, 1, 1]>, <24, 23, 24, 1, 0, 0, 0, [1, 1, 1, 1, 1, 1, 1, 1]>, <25, 24, 25, 1, 0, 0, 0, [1, 1, 1, 1, 1, 1, 1, 1]>, <26, 25, 26, 1, 0, 0, 0, [1, 1, 1, 1, 1, 1, 1, 1]>, <27, 26, 27, 1, 0, 0, 0, [1, 1, 1, 1, 1, 1, 1, 1]>, <28, 27, 28, 1, 0, 0, 0, [1, 1, 1, 1, 1, 1, 1, 1]>, <29, 28, 29, 1, 0, 0, 0, [1, 1, 1, 1, 1, 1, 1, 1]>, <30, 29, 30, 1, 0, 0, 0, [1, 1, 1, 1, 1, 1, 1, 1]>, <31, 30, 31, 1, 0, 0, 0, [1, 1, 1, 1, 1, 1, 1, 1]>, <32, 31, 32, 1, 0, 0, 0, [1, 1, 1, 1, 1, 1, 1, 1]>, <33, 32, 33, 1, 0, 0, 0, [1, 1, 1, 1, 1, 1, 1, 1]>, <34, 33, 34, 1, 0, 0, 0, [1, 1, 1, 1, 1, 1, 1, 1]>, <35, 34, 35, 1, 0, 0, 0, [1, 1, 1, 1, 1, 1, 1, 1]>, <36, 0, 22, 22, 1, 0, 0, [0, 0, 0, 0, 0, 1, 1, 0]>, <37, 1, 23, 22, 1, 0, 0, [0, 0, 0, 0, 0, 1, 1, 0]>, <38, 2, 24, 22, 1, 0, 0, [0, 0, 0, 0, 0, 1, 1, 0]>, <39, 3, 25, 22, 1, 0, 0, [0, 0, 0, 0, 0, 1, 1, 0]>, <40, 4, 26, 22, 1, 0, 0, [0, 0, 0, 0, 0, 1, 1, 0]>, <41, 5, 27, 22, 1, 0, 0, [0, 0, 0, 0, 0, 1, 1, 0]>, <42, 6, 28, 22, 1, 0, 0, [0, 0, 0, 0, 0, 1, 1, 0]>, <43, 7, 29, 22, 1, 0, 0, [0, 0, 0, 0, 0, 1, 1, 0]>, <44, 8, 30, 22, 1, 0, 0, [0, 0, 0, 0, 0, 1, 1, 0]>, <45, 9, 31, 22, 1, 0, 0, [0, 0, 0, 0, 0, 1, 1, 0]>, <46, 10, 32, 22, 1, 0, 0, [0, 0, 0, 0, 0, 1, 1, 0]>, <47, 11, 33, 22, 1, 0, 0, [0, 0, 0, 0, 0, 1, 1, 0]>, <48, 12, 34, 22, 1, 0, 0, [0, 0, 0, 0, 0, 1, 1, 0]>, <49, 13, 35, 22, 1, 0, 0, [0, 0, 0, 0, 0, 1, 1, 0]>, <50, 0, 21, 21, 2, 0, 0, [0, 0, 0, 0, 0, 0, 1, 1]>, <51, 1, 22, 21, 2, 0, 0, [0, 0, 0, 0, 0, 0, 1, 1]>, <52, 2, 23, 21, 2, 0, 0, [0, 0, 0, 0, 0, 0, 1, 1]>, <53, 3, 24, 21, 2, 0, 0, [0, 0, 0, 0, 0, 0, 1, 1]>, <54, 4, 25, 21, 2, 0, 0, [0, 0, 0, 0, 0, 0, 1, 1]>, <55, 5, 26, 21, 2, 0, 0, [0, 0, 0, 0, 0, 0, 1, 1]>, <56, 6, 27, 21, 2, 0, 0, [0, 0, 0, 0, 0, 0, 1, 1]>, <57, 7, 28, 21, 2, 0, 0, [0, 0, 0, 0, 0, 0, 1, 1]>, <58, 8, 29, 21, 2, 0, 0, [0, 0, 0, 0, 0, 0, 1, 1]>, <59, 9, 30, 21, 2, 0, 0, [0, 0, 0, 0, 0, 0, 1, 1]>, <60, 10, 31, 21, 2, 0, 0, [0, 0, 0, 0, 0, 0, 1, 1]>, <61, 11, 32, 21, 2, 0, 0, [0, 0, 0, 0, 0, 0, 1, 1]>, <62, 12, 33, 21, 2, 0, 0, [0, 0, 0, 0, 0, 0, 1, 1]>, <63, 13, 34, 21, 2, 0, 0, [0, 0, 0, 0, 0, 0, 1, 1]>, <64, 14, 35, 21, 2, 0, 0, [0, 0, 0, 0, 0, 0, 1, 1]>, <65, 0, 20, 20, 3, 0, 1, [0, 0, 0, 0, 0, 0, 1, 1]>, <66, 1, 21, 20, 3, 0, 1, [0, 0, 0, 0, 0, 0, 1, 1]>, <67, 2, 22, 20, 3, 0, 1, [0, 0, 0, 0, 0, 0, 1, 1]>, <68, 3, 23, 20, 3, 0, 1, [0, 0, 0, 0, 0, 0, 1, 1]>, <69, 4, 24, 20, 3, 0, 1, [0, 0, 0, 0, 0, 0, 1, 1]>, <70, 5, 25, 20, 3, 0, 1, [0, 0, 0, 0, 0, 0, 1, 1]>, <71, 6, 26, 20, 3, 0, 1, [0, 0, 0, 0, 0, 0, 1, 1]>, <72, 7, 27, 20, 3, 0, 1, [0, 0, 0, 0, 0, 0, 1, 1]>, <73, 8, 28, 20, 3, 0, 1, [0, 0, 0, 0, 0, 0, 1, 1]>, <74, 9, 29, 20, 3, 0, 1, [0, 0, 0, 0, 0, 0, 1, 1]>, <75, 10, 30, 20, 3, 0, 1, [0, 0, 0, 0, 0, 0, 1, 1]>, <76, 11, 31, 20, 3, 0, 1, [0, 0, 0, 0, 0, 0, 1, 1]>, <77, 12, 32, 20, 3, 0, 1, [0, 0, 0, 0, 0, 0, 1, 1]>, <78, 13, 33, 20, 3, 0, 1, [0, 0, 0, 0, 0, 0, 1, 1]>, <79, 14, 34, 20, 3, 0, 1, [0, 0, 0, 0, 0, 0, 1, 1]>, <80, 15, 35, 20, 3, 0, 1, [0, 0, 0, 0, 0, 0, 1, 1]>, <81, 0, 22, 22, 4, 0, 0, [0, 0, 0, 1, 1, 0, 0, 0]>, <82, 1, 23, 22, 4, 0, 0, [0, 0, 0, 1, 1, 0, 0, 0]>, <83, 2, 24, 22, 4, 0, 0, [0, 0, 0, 1, 1, 0, 0, 0]>, <84, 3, 25, 22, 4, 0, 0, [0, 0, 0, 1, 1, 0, 0, 0]>, <85, 4, 26, 22, 4, 0, 0, [0, 0, 0, 1, 1, 0, 0, 0]>, <86, 5, 27, 22, 4, 0, 0, [0, 0, 0, 1, 1, 0, 0, 0]>, <87, 6, 28, 22, 4, 0, 0, [0, 0, 0, 1, 1, 0, 0, 0]>, <88, 7, 29, 22, 4, 0, 0, [0, 0, 0, 1, 1, 0, 0, 0]>, <89, 8, 30, 22, 4, 0, 0, [0, 0, 0, 1, 1, 0, 0, 0]>, <90, 9, 31, 22, 4, 0, 0, [0, 0, 0, 1, 1, 0, 0, 0]>, <91, 10, 32, 22, 4, 0, 0, [0, 0, 0, 1, 1, 0, 0, 0]>, <92, 11, 33, 22, 4, 0, 0, [0, 0, 0, 1, 1, 0, 0, 0]>, <93, 12, 34, 22, 4, 0, 0, [0, 0, 0, 1, 1, 0, 0, 0]>, <94, 13, 35, 22, 4, 0, 0, [0, 0, 0, 1, 1, 0, 0, 0]>, <95, 0, 21, 21, 5, 0, 0, [0, 0, 0, 0, 0, 0, 1, 1]>, <96, 1, 22, 21, 5, 0, 0, [0, 0, 0, 0, 0, 0, 1, 1]>, <97, 2, 23, 21, 5, 0, 0, [0, 0, 0, 0, 0, 0, 1, 1]>, <98, 3, 24, 21, 5, 0, 0, [0, 0, 0, 0, 0, 0, 1, 1]>, <99, 4, 25, 21, 5, 0, 0, [0, 0, 0, 0, 0, 0, 1, 1]>, <100, 5, 26, 21, 5, 0, 0, [0, 0, 0, 0, 0, 0, 1, 1]>, <101, 6, 27, 21, 5, 0, 0, [0, 0, 0, 0, 0, 0, 1, 1]>, <102, 7, 28, 21, 5, 0, 0, [0, 0, 0, 0, 0, 0, 1, 1]>, <103, 8, 29, 21, 5, 0, 0, [0, 0, 0, 0, 0, 0, 1, 1]>, <104, 9, 30, 21, 5, 0, 0, [0, 0, 0, 0, 0, 0, 1, 1]>, <105, 10, 31, 21, 5, 0, 0, [0, 0, 0, 0, 0, 0, 1, 1]>, <106, 11, 32, 21, 5, 0, 0, [0, 0, 0, 0, 0, 0, 1, 1]>, <107, 12, 33, 21, 5, 0, 0, [0, 0, 0, 0, 0, 0, 1, 1]>, <108, 13, 34, 21, 5, 0, 0, [0, 0, 0, 0, 0, 0, 1, 1]>, <109, 14, 35, 21, 5, 0, 0, [0, 0, 0, 0, 0, 0, 1, 1]>, <110, 0, 17, 17, 6, 0, 0, [0, 0, 0, 0, 0, 1, 1, 0]>, <111, 1, 18, 17, 6, 0, 0, [0, 0, 0, 0, 0, 1, 1, 0]>, <112, 2, 19, 17, 6, 0, 0, [0, 0, 0, 0, 0, 1, 1, 0]>, <113, 3, 20, 17, 6, 0, 0, [0, 0, 0, 0, 0, 1, 1, 0]>, <114, 4, 21, 17, 6, 0, 0, [0, 0, 0, 0, 0, 1, 1, 0]>, <115, 5, 22, 17, 6, 0, 0, [0, 0, 0, 0, 0, 1, 1, 0]>, <116, 6, 23, 17, 6, 0, 0, [0, 0, 0, 0, 0, 1, 1, 0]>, <117, 9, 26, 17, 6, 0, 0, [0, 0, 0, 0, 0, 1, 1, 0]>, <118, 10, 27, 17, 6, 0, 0, [0, 0, 0, 0, 0, 1, 1, 0]>, <119, 11, 28, 17, 6, 0, 0, [0, 0, 0, 0, 0, 1, 1, 0]>, <120, 12, 29, 17, 6, 0, 0, [0, 0, 0, 0, 0, 1, 1, 0]>, <121, 13, 30, 17, 6, 0, 0, [0, 0, 0, 0, 0, 1, 1, 0]>, <122, 14, 31, 17, 6, 0, 0, [0, 0, 0, 0, 0, 1, 1, 0]>, <123, 15, 32, 17, 6, 0, 0, [0, 0, 0, 0, 0, 1, 1, 0]>, <124, 16, 33, 17, 6, 0, 0, [0, 0, 0, 0, 0, 1, 1, 0]>, <125, 17, 34, 17, 6, 0, 0, [0, 0, 0, 0, 0, 1, 1, 0]>, <126, 18, 35, 17, 6, 0, 0, [0, 0, 0, 0, 0, 1, 1, 0]>, <127, 0, 17, 17, 7, 0, 0, [1, 1, 0, 0, 0, 0, 0, 0]>, <128, 1, 18, 17, 7, 0, 0, [1, 1, 0, 0, 0, 0, 0, 0]>, <129, 2, 19, 17, 7, 0, 0, [1, 1, 0, 0, 0, 0, 0, 0]>, <130, 3, 20, 17, 7, 0, 0, [1, 1, 0, 0, 0, 0, 0, 0]>, <131, 4, 21, 17, 7, 0, 0, [1, 1, 0, 0, 0, 0, 0, 0]>, <132, 5, 22, 17, 7, 0, 0, [1, 1, 0, 0, 0, 0, 0, 0]>, <133, 6, 23, 17, 7, 0, 0, [1, 1, 0, 0, 0, 0, 0, 0]>, <134, 9, 26, 17, 7, 0, 0, [1, 1, 0, 0, 0, 0, 0, 0]>, <135, 10, 27, 17, 7, 0, 0, [1, 1, 0, 0, 0, 0, 0, 0]>, <136, 11, 28, 17, 7, 0, 0, [1, 1, 0, 0, 0, 0, 0, 0]>, <137, 12, 29, 17, 7, 0, 0, [1, 1, 0, 0, 0, 0, 0, 0]>, <138, 13, 30, 17, 7, 0, 0, [1, 1, 0, 0, 0, 0, 0, 0]>, <139, 14, 31, 17, 7, 0, 0, [1, 1, 0, 0, 0, 0, 0, 0]>, <140, 15, 32, 17, 7, 0, 0, [1, 1, 0, 0, 0, 0, 0, 0]>, <141, 16, 33, 17, 7, 0, 0, [1, 1, 0, 0, 0, 0, 0, 0]>, <142, 17, 34, 17, 7, 0, 0, [1, 1, 0, 0, 0, 0, 0, 0]>, <143, 18, 35, 17, 7, 0, 0, [1, 1, 0, 0, 0, 0, 0, 0]>, <144, 0, 21, 21, 8, 0, 0, [0, 0, 0, 0, 0, 0, 1, 1]>, <145, 1, 22, 21, 8, 0, 0, [0, 0, 0, 0, 0, 0, 1, 1]>, <146, 2, 23, 21, 8, 0, 0, [0, 0, 0, 0, 0, 0, 1, 1]>, <147, 3, 24, 21, 8, 0, 0, [0, 0, 0, 0, 0, 0, 1, 1]>, <148, 4, 25, 21, 8, 0, 0, [0, 0, 0, 0, 0, 0, 1, 1]>, <149, 5, 26, 21, 8, 0, 0, [0, 0, 0, 0, 0, 0, 1, 1]>, <150, 6, 27, 21, 8, 0, 0, [0, 0, 0, 0, 0, 0, 1, 1]>, <151, 7, 28, 21, 8, 0, 0, [0, 0, 0, 0, 0, 0, 1, 1]>, <152, 8, 29, 21, 8, 0, 0, [0, 0, 0, 0, 0, 0, 1, 1]>, <153, 9, 30, 21, 8, 0, 0, [0, 0, 0, 0, 0, 0, 1, 1]>, <154, 10, 31, 21, 8, 0, 0, [0, 0, 0, 0, 0, 0, 1, 1]>, <155, 11, 32, 21, 8, 0, 0, [0, 0, 0, 0, 0, 0, 1, 1]>, <156, 12, 33, 21, 8, 0, 0, [0, 0, 0, 0, 0, 0, 1, 1]>, <157, 13, 34, 21, 8, 0, 0, [0, 0, 0, 0, 0, 0, 1, 1]>, <158, 14, 35, 21, 8, 0, 0, [0, 0, 0, 0, 0, 0, 1, 1]>, <159, 0, 17, 17, 9, 0, 0, [1, 0, 0, 0, 0, 0, 0, 1]>, <160, 1, 18, 17, 9, 0, 0, [1, 0, 0, 0, 0, 0, 0, 1]>, <161, 2, 19, 17, 9, 0, 0, [1, 0, 0, 0, 0, 0, 0, 1]>, <162, 3, 20, 17, 9, 0, 0, [1, 0, 0, 0, 0, 0, 0, 1]>, <163, 4, 21, 17, 9, 0, 0, [1, 0, 0, 0, 0, 0, 0, 1]>, <164, 5, 22, 17, 9, 0, 0, [1, 0, 0, 0, 0, 0, 0, 1]>, <165, 6, 23, 17, 9, 0, 0, [1, 0, 0, 0, 0, 0, 0, 1]>, <166, 9, 26, 17, 9, 0, 0, [1, 0, 0, 0, 0, 0, 0, 1]>, <167, 10, 27, 17, 9, 0, 0, [1, 0, 0, 0, 0, 0, 0, 1]>, <168, 11, 28, 17, 9, 0, 0, [1, 0, 0, 0, 0, 0, 0, 1]>, <169, 12, 29, 17, 9, 0, 0, [1, 0, 0, 0, 0, 0, 0, 1]>, <170, 13, 30, 17, 9, 0, 0, [1, 0, 0, 0, 0, 0, 0, 1]>, <171, 14, 31, 17, 9, 0, 0, [1, 0, 0, 0, 0, 0, 0, 1]>, <172, 15, 32, 17, 9, 0, 0, [1, 0, 0, 0, 0, 0, 0, 1]>, <173, 16, 33, 17, 9, 0, 0, [1, 0, 0, 0, 0, 0, 0, 1]>, <174, 17, 34, 17, 9, 0, 0, [1, 0, 0, 0, 0, 0, 0, 1]>, <175, 18, 35, 17, 9, 0, 0, [1, 0, 0, 0, 0, 0, 0, 1]>, <176, 0, 18, 18, 10, 0, 1, [0, 0, 0, 1, 1, 0, 0, 0]>, <177, 1, 19, 18, 10, 0, 1, [0, 0, 0, 1, 1, 0, 0, 0]>, <178, 2, 20, 18, 10, 0, 1, [0, 0, 0, 1, 1, 0, 0, 0]>, <179, 3, 21, 18, 10, 0, 1, [0, 0, 0, 1, 1, 0, 0, 0]>, <180, 4, 22, 18, 10, 0, 1, [0, 0, 0, 1, 1, 0, 0, 0]>, <181, 5, 23, 18, 10, 0, 1, [0, 0, 0, 1, 1, 0, 0, 0]>, <182, 6, 24, 18, 10, 0, 1, [0, 0, 0, 1, 1, 0, 0, 0]>, <183, 8, 26, 18, 10, 0, 1, [0, 0, 0, 1, 1, 0, 0, 0]>, <184, 9, 27, 18, 10, 0, 1, [0, 0, 0, 1, 1, 0, 0, 0]>, <185, 10, 28, 18, 10, 0, 1, [0, 0, 0, 1, 1, 0, 0, 0]>, <186, 11, 29, 18, 10, 0, 1, [0, 0, 0, 1, 1, 0, 0, 0]>, <187, 12, 30, 18, 10, 0, 1, [0, 0, 0, 1, 1, 0, 0, 0]>, <188, 13, 31, 18, 10, 0, 1, [0, 0, 0, 1, 1, 0, 0, 0]>, <189, 14, 32, 18, 10, 0, 1, [0, 0, 0, 1, 1, 0, 0, 0]>, <190, 15, 33, 18, 10, 0, 1, [0, 0, 0, 1, 1, 0, 0, 0]>, <191, 16, 34, 18, 10, 0, 1, [0, 0, 0, 1, 1, 0, 0, 0]>, <192, 17, 35, 18, 10, 0, 1, [0, 0, 0, 1, 1, 0, 0, 0]>, <193, 0, 22, 22, 11, 0, 0, [1, 0, 0, 0, 0, 0, 0, 1]>, <194, 1, 23, 22, 11, 0, 0, [1, 0, 0, 0, 0, 0, 0, 1]>, <195, 2, 24, 22, 11, 0, 0, [1, 0, 0, 0, 0, 0, 0, 1]>, <196, 3, 25, 22, 11, 0, 0, [1, 0, 0, 0, 0, 0, 0, 1]>, <197, 4, 26, 22, 11, 0, 0, [1, 0, 0, 0, 0, 0, 0, 1]>, <198, 5, 27, 22, 11, 0, 0, [1, 0, 0, 0, 0, 0, 0, 1]>, <199, 6, 28, 22, 11, 0, 0, [1, 0, 0, 0, 0, 0, 0, 1]>, <200, 7, 29, 22, 11, 0, 0, [1, 0, 0, 0, 0, 0, 0, 1]>, <201, 8, 30, 22, 11, 0, 0, [1, 0, 0, 0, 0, 0, 0, 1]>, <202, 9, 31, 22, 11, 0, 0, [1, 0, 0, 0, 0, 0, 0, 1]>, <203, 10, 32, 22, 11, 0, 0, [1, 0, 0, 0, 0, 0, 0, 1]>, <204, 11, 33, 22, 11, 0, 0, [1, 0, 0, 0, 0, 0, 0, 1]>, <205, 12, 34, 22, 11, 0, 0, [1, 0, 0, 0, 0, 0, 0, 1]>, <206, 13, 35, 22, 11, 0, 0, [1, 0, 0, 0, 0, 0, 0, 1]>, <207, 0, 20, 20, 12, 0, 1, [1, 1, 0, 0, 0, 0, 0, 0]>, <208, 1, 21, 20, 12, 0, 1, [1, 1, 0, 0, 0, 0, 0, 0]>, <209, 2, 22, 20, 12, 0, 1, [1, 1, 0, 0, 0, 0, 0, 0]>, <210, 3, 23, 20, 12, 0, 1, [1, 1, 0, 0, 0, 0, 0, 0]>, <211, 4, 24, 20, 12, 0, 1, [1, 1, 0, 0, 0, 0, 0, 0]>, <212, 5, 25, 20, 12, 0, 1, [1, 1, 0, 0, 0, 0, 0, 0]>, <213, 6, 26, 20, 12, 0, 1, [1, 1, 0, 0, 0, 0, 0, 0]>, <214, 7, 27, 20, 12, 0, 1, [1, 1, 0, 0, 0, 0, 0, 0]>, <215, 8, 28, 20, 12, 0, 1, [1, 1, 0, 0, 0, 0, 0, 0]>, <216, 9, 29, 20, 12, 0, 1, [1, 1, 0, 0, 0, 0, 0, 0]>, <217, 10, 30, 20, 12, 0, 1, [1, 1, 0, 0, 0, 0, 0, 0]>, <218, 11, 31, 20, 12, 0, 1, [1, 1, 0, 0, 0, 0, 0, 0]>, <219, 12, 32, 20, 12, 0, 1, [1, 1, 0, 0, 0, 0, 0, 0]>, <220, 13, 33, 20, 12, 0, 1, [1, 1, 0, 0, 0, 0, 0, 0]>, <221, 14, 34, 20, 12, 0, 1, [1, 1, 0, 0, 0, 0, 0, 0]>, <222, 15, 35, 20, 12, 0, 1, [1, 1, 0, 0, 0, 0, 0, 0]>, <223, 0, 17, 17, 13, 1, 0, [0, 0, 0, 1, 1, 0, 0, 0]>, <224, 1, 18, 17, 13, 1, 0, [0, 0, 0, 1, 1, 0, 0, 0]>, <225, 2, 19, 17, 13, 1, 0, [0, 0, 0, 1, 1, 0, 0, 0]>, <226, 3, 20, 17, 13, 1, 0, [0, 0, 0, 1, 1, 0, 0, 0]>, <227, 4, 21, 17, 13, 1, 0, [0, 0, 0, 1, 1, 0, 0, 0]>, <228, 5, 22, 17, 13, 1, 0, [0, 0, 0, 1, 1, 0, 0, 0]>, <229, 6, 23, 17, 13, 1, 0, [0, 0, 0, 1, 1, 0, 0, 0]>, <230, 9, 26, 17, 13, 1, 0, [0, 0, 0, 1, 1, 0, 0, 0]>, <231, 10, 27, 17, 13, 1, 0, [0, 0, 0, 1, 1, 0, 0, 0]>, <232, 11, 28, 17, 13, 1, 0, [0, 0, 0, 1, 1, 0, 0, 0]>, <233, 12, 29, 17, 13, 1, 0, [0, 0, 0, 1, 1, 0, 0, 0]>, <234, 13, 30, 17, 13, 1, 0, [0, 0, 0, 1, 1, 0, 0, 0]>, <235, 14, 31, 17, 13, 1, 0, [0, 0, 0, 1, 1, 0, 0, 0]>, <236, 15, 32, 17, 13, 1, 0, [0, 0, 0, 1, 1, 0, 0, 0]>, <237, 16, 33, 17, 13, 1, 0, [0, 0, 0, 1, 1, 0, 0, 0]>, <238, 17, 34, 17, 13, 1, 0, [0, 0, 0, 1, 1, 0, 0, 0]>, <239, 18, 35, 17, 13, 1, 0, [0, 0, 0, 1, 1, 0, 0, 0]>, <240, 0, 18, 18, 14, 0, 1, [0, 1, 1, 0, 0, 0, 0, 0]>, <241, 1, 19, 18, 14, 0, 1, [0, 1, 1, 0, 0, 0, 0, 0]>, <242, 2, 20, 18, 14, 0, 1, [0, 1, 1, 0, 0, 0, 0, 0]>, <243, 3, 21, 18, 14, 0, 1, [0, 1, 1, 0, 0, 0, 0, 0]>, <244, 4, 22, 18, 14, 0, 1, [0, 1, 1, 0, 0, 0, 0, 0]>, <245, 5, 23, 18, 14, 0, 1, [0, 1, 1, 0, 0, 0, 0, 0]>, <246, 6, 24, 18, 14, 0, 1, [0, 1, 1, 0, 0, 0, 0, 0]>, <247, 8, 26, 18, 14, 0, 1, [0, 1, 1, 0, 0, 0, 0, 0]>, <248, 9, 27, 18, 14, 0, 1, [0, 1, 1, 0, 0, 0, 0, 0]>, <249, 10, 28, 18, 14, 0, 1, [0, 1, 1, 0, 0, 0, 0, 0]>, <250, 11, 29, 18, 14, 0, 1, [0, 1, 1, 0, 0, 0, 0, 0]>, <251, 12, 30, 18, 14, 0, 1, [0, 1, 1, 0, 0, 0, 0, 0]>, <252, 13, 31, 18, 14, 0, 1, [0, 1, 1, 0, 0, 0, 0, 0]>, <253, 14, 32, 18, 14, 0, 1, [0, 1, 1, 0, 0, 0, 0, 0]>, <254, 15, 33, 18, 14, 0, 1, [0, 1, 1, 0, 0, 0, 0, 0]>, <255, 16, 34, 18, 14, 0, 1, [0, 1, 1, 0, 0, 0, 0, 0]>, <256, 17, 35, 18, 14, 0, 1, [0, 1, 1, 0, 0, 0, 0, 0]>, <257, 0, 21, 21, 15, 0, 0, [0, 0, 0, 1, 1, 0, 0, 0]>, <258, 1, 22, 21, 15, 0, 0, [0, 0, 0, 1, 1, 0, 0, 0]>, <259, 2, 23, 21, 15, 0, 0, [0, 0, 0, 1, 1, 0, 0, 0]>, <260, 3, 24, 21, 15, 0, 0, [0, 0, 0, 1, 1, 0, 0, 0]>, <261, 4, 25, 21, 15, 0, 0, [0, 0, 0, 1, 1, 0, 0, 0]>, <262, 5, 26, 21, 15, 0, 0, [0, 0, 0, 1, 1, 0, 0, 0]>, <263, 6, 27, 21, 15, 0, 0, [0, 0, 0, 1, 1, 0, 0, 0]>, <264, 7, 28, 21, 15, 0, 0, [0, 0, 0, 1, 1, 0, 0, 0]>, <265, 8, 29, 21, 15, 0, 0, [0, 0, 0, 1, 1, 0, 0, 0]>, <266, 9, 30, 21, 15, 0, 0, [0, 0, 0, 1, 1, 0, 0, 0]>, <267, 10, 31, 21, 15, 0, 0, [0, 0, 0, 1, 1, 0, 0, 0]>, <268, 11, 32, 21, 15, 0, 0, [0, 0, 0, 1, 1, 0, 0, 0]>, <269, 12, 33, 21, 15, 0, 0, [0, 0, 0, 1, 1, 0, 0, 0]>, <270, 13, 34, 21, 15, 0, 0, [0, 0, 0, 1, 1, 0, 0, 0]>, <271, 14, 35, 21, 15, 0, 0, [0, 0, 0, 1, 1, 0, 0, 0]>, <272, 0, 22, 22, 16, 0, 0, [0, 0, 1, 1, 0, 0, 0, 0]>, <273, 1, 23, 22, 16, 0, 0, [0, 0, 1, 1, 0, 0, 0, 0]>, <274, 2, 24, 22, 16, 0, 0, [0, 0, 1, 1, 0, 0, 0, 0]>, <275, 3, 25, 22, 16, 0, 0, [0, 0, 1, 1, 0, 0, 0, 0]>, <276, 4, 26, 22, 16, 0, 0, [0, 0, 1, 1, 0, 0, 0, 0]>, <277, 5, 27, 22, 16, 0, 0, [0, 0, 1, 1, 0, 0, 0, 0]>, <278, 6, 28, 22, 16, 0, 0, [0, 0, 1, 1, 0, 0, 0, 0]>, <279, 7, 29, 22, 16, 0, 0, [0, 0, 1, 1, 0, 0, 0, 0]>, <280, 8, 30, 22, 16, 0, 0, [0, 0, 1, 1, 0, 0, 0, 0]>, <281, 9, 31, 22, 16, 0, 0, [0, 0, 1, 1, 0, 0, 0, 0]>, <282, 10, 32, 22, 16, 0, 0, [0, 0, 1, 1, 0, 0, 0, 0]>, <283, 11, 33, 22, 16, 0, 0, [0, 0, 1, 1, 0, 0, 0, 0]>, <284, 12, 34, 22, 16, 0, 0, [0, 0, 1, 1, 0, 0, 0, 0]>, <285, 13, 35, 22, 16, 0, 0, [0, 0, 1, 1, 0, 0, 0, 0]>, <286, 0, 22, 22, 17, 1, 0, [0, 0, 0, 1, 1, 0, 0, 0]>, <287, 1, 23, 22, 17, 1, 0, [0, 0, 0, 1, 1, 0, 0, 0]>, <288, 2, 24, 22, 17, 1, 0, [0, 0, 0, 1, 1, 0, 0, 0]>, <289, 3, 25, 22, 17, 1, 0, [0, 0, 0, 1, 1, 0, 0, 0]>, <290, 4, 26, 22, 17, 1, 0, [0, 0, 0, 1, 1, 0, 0, 0]>, <291, 5, 27, 22, 17, 1, 0, [0, 0, 0, 1, 1, 0, 0, 0]>, <292, 6, 28, 22, 17, 1, 0, [0, 0, 0, 1, 1, 0, 0, 0]>, <293, 7, 29, 22, 17, 1, 0, [0, 0, 0, 1, 1, 0, 0, 0]>, <294, 8, 30, 22, 17, 1, 0, [0, 0, 0, 1, 1, 0, 0, 0]>, <295, 9, 31, 22, 17, 1, 0, [0, 0, 0, 1, 1, 0, 0, 0]>, <296, 10, 32, 22, 17, 1, 0, [0, 0, 0, 1, 1, 0, 0, 0]>, <297, 11, 33, 22, 17, 1, 0, [0, 0, 0, 1, 1, 0, 0, 0]>, <298, 12, 34, 22, 17, 1, 0, [0, 0, 0, 1, 1, 0, 0, 0]>, <299, 13, 35, 22, 17, 1, 0, [0, 0, 0, 1, 1, 0, 0, 0]>, <300, 1, 17, 16, 18, 0, 0, [0, 0, 0, 0, 0, 0, 1, 1]>, <301, 2, 18, 16, 18, 0, 0, [0, 0, 0, 0, 0, 0, 1, 1]>, <302, 3, 19, 16, 18, 0, 0, [0, 0, 0, 0, 0, 0, 1, 1]>, <303, 4, 20, 16, 18, 0, 0, [0, 0, 0, 0, 0, 0, 1, 1]>, <304, 5, 21, 16, 18, 0, 0, [0, 0, 0, 0, 0, 0, 1, 1]>, <305, 6, 22, 16, 18, 0, 0, [0, 0, 0, 0, 0, 0, 1, 1]>, <306, 10, 26, 16, 18, 0, 0, [0, 0, 0, 0, 0, 0, 1, 1]>, <307, 11, 27, 16, 18, 0, 0, [0, 0, 0, 0, 0, 0, 1, 1]>, <308, 12, 28, 16, 18, 0, 0, [0, 0, 0, 0, 0, 0, 1, 1]>, <309, 13, 29, 16, 18, 0, 0, [0, 0, 0, 0, 0, 0, 1, 1]>, <310, 14, 30, 16, 18, 0, 0, [0, 0, 0, 0, 0, 0, 1, 1]>, <311, 15, 31, 16, 18, 0, 0, [0, 0, 0, 0, 0, 0, 1, 1]>, <312, 16, 32, 16, 18, 0, 0, [0, 0, 0, 0, 0, 0, 1, 1]>, <313, 17, 33, 16, 18, 0, 0, [0, 0, 0, 0, 0, 0, 1, 1]>, <314, 18, 34, 16, 18, 0, 0, [0, 0, 0, 0, 0, 0, 1, 1]>, <315, 19, 35, 16, 18, 0, 0, [0, 0, 0, 0, 0, 0, 1, 1]>, <316, 0, 18, 18, 19, 0, 0, [0, 0, 0, 0, 1, 1, 0, 0]>, <317, 1, 19, 18, 19, 0, 0, [0, 0, 0, 0, 1, 1, 0, 0]>, <318, 2, 20, 18, 19, 0, 0, [0, 0, 0, 0, 1, 1, 0, 0]>, <319, 3, 21, 18, 19, 0, 0, [0, 0, 0, 0, 1, 1, 0, 0]>, <320, 4, 22, 18, 19, 0, 0, [0, 0, 0, 0, 1, 1, 0, 0]>, <321, 5, 23, 18, 19, 0, 0, [0, 0, 0, 0, 1, 1, 0, 0]>, <322, 6, 24, 18, 19, 0, 0, [0, 0, 0, 0, 1, 1, 0, 0]>, <323, 8, 26, 18, 19, 0, 0, [0, 0, 0, 0, 1, 1, 0, 0]>, <324, 9, 27, 18, 19, 0, 0, [0, 0, 0, 0, 1, 1, 0, 0]>, <325, 10, 28, 18, 19, 0, 0, [0, 0, 0, 0, 1, 1, 0, 0]>, <326, 11, 29, 18, 19, 0, 0, [0, 0, 0, 0, 1, 1, 0, 0]>, <327, 12, 30, 18, 19, 0, 0, [0, 0, 0, 0, 1, 1, 0, 0]>, <328, 13, 31, 18, 19, 0, 0, [0, 0, 0, 0, 1, 1, 0, 0]>, <329, 14, 32, 18, 19, 0, 0, [0, 0, 0, 0, 1, 1, 0, 0]>, <330, 15, 33, 18, 19, 0, 0, [0, 0, 0, 0, 1, 1, 0, 0]>, <331, 16, 34, 18, 19, 0, 0, [0, 0, 0, 0, 1, 1, 0, 0]>, <332, 17, 35, 18, 19, 0, 0, [0, 0, 0, 0, 1, 1, 0, 0]>, <333, 0, 17, 17, 20, 1, 0, [0, 1, 1, 0, 0, 0, 0, 0]>, <334, 1, 18, 17, 20, 1, 0, [0, 1, 1, 0, 0, 0, 0, 0]>, <335, 2, 19, 17, 20, 1, 0, [0, 1, 1, 0, 0, 0, 0, 0]>, <336, 3, 20, 17, 20, 1, 0, [0, 1, 1, 0, 0, 0, 0, 0]>, <337, 4, 21, 17, 20, 1, 0, [0, 1, 1, 0, 0, 0, 0, 0]>, <338, 5, 22, 17, 20, 1, 0, [0, 1, 1, 0, 0, 0, 0, 0]>, <339, 6, 23, 17, 20, 1, 0, [0, 1, 1, 0, 0, 0, 0, 0]>, <340, 9, 26, 17, 20, 1, 0, [0, 1, 1, 0, 0, 0, 0, 0]>, <341, 10, 27, 17, 20, 1, 0, [0, 1, 1, 0, 0, 0, 0, 0]>, <342, 11, 28, 17, 20, 1, 0, [0, 1, 1, 0, 0, 0, 0, 0]>, <343, 12, 29, 17, 20, 1, 0, [0, 1, 1, 0, 0, 0, 0, 0]>, <344, 13, 30, 17, 20, 1, 0, [0, 1, 1, 0, 0, 0, 0, 0]>, <345, 14, 31, 17, 20, 1, 0, [0, 1, 1, 0, 0, 0, 0, 0]>, <346, 15, 32, 17, 20, 1, 0, [0, 1, 1, 0, 0, 0, 0, 0]>, <347, 16, 33, 17, 20, 1, 0, [0, 1, 1, 0, 0, 0, 0, 0]>, <348, 17, 34, 17, 20, 1, 0, [0, 1, 1, 0, 0, 0, 0, 0]>, <349, 18, 35, 17, 20, 1, 0, [0, 1, 1, 0, 0, 0, 0, 0]>, <350, 0, 21, 21, 21, 0, 0, [0, 0, 0, 1, 1, 0, 0, 0]>, <351, 1, 22, 21, 21, 0, 0, [0, 0, 0, 1, 1, 0, 0, 0]>, <352, 2, 23, 21, 21, 0, 0, [0, 0, 0, 1, 1, 0, 0, 0]>, <353, 3, 24, 21, 21, 0, 0, [0, 0, 0, 1, 1, 0, 0, 0]>, <354, 4, 25, 21, 21, 0, 0, [0, 0, 0, 1, 1, 0, 0, 0]>, <355, 5, 26, 21, 21, 0, 0, [0, 0, 0, 1, 1, 0, 0, 0]>, <356, 6, 27, 21, 21, 0, 0, [0, 0, 0, 1, 1, 0, 0, 0]>, <357, 7, 28, 21, 21, 0, 0, [0, 0, 0, 1, 1, 0, 0, 0]>, <358, 8, 29, 21, 21, 0, 0, [0, 0, 0, 1, 1, 0, 0, 0]>, <359, 9, 30, 21, 21, 0, 0, [0, 0, 0, 1, 1, 0, 0, 0]>, <360, 10, 31, 21, 21, 0, 0, [0, 0, 0, 1, 1, 0, 0, 0]>, <361, 11, 32, 21, 21, 0, 0, [0, 0, 0, 1, 1, 0, 0, 0]>, <362, 12, 33, 21, 21, 0, 0, [0, 0, 0, 1, 1, 0, 0, 0]>, <363, 13, 34, 21, 21, 0, 0, [0, 0, 0, 1, 1, 0, 0, 0]>, <364, 14, 35, 21, 21, 0, 0, [0, 0, 0, 1, 1, 0, 0, 0]>};
